p cnf 7230 15
-3696 -4214 -4866 5291 0
-3692 -4220 -4864 5289 0
3696 -5292 0
3692 -5290 0
4214 -5292 0
4220 -5290 0
-5291 5292 0
-5289 5290 0
-5286 5288 0
5287 -5288 0
5285 -5287 0
-4858 5286 0
4858 -5285 0
4866 -5292 0
4864 -5290 0
